presolving:
(round 1, fast)       75 del vars, 5025 del conss, 0 add conss, 0 chg bounds, 0 chg sides, 0 chg coeffs, 0 upgd conss, 0 impls, 5100 clqs
   (0.1s) running MILP presolver
   (0.1s) MILP presolver found nothing
(round 2, exhaustive) 75 del vars, 5025 del conss, 0 add conss, 0 chg bounds, 0 chg sides, 0 chg coeffs, 5167 upgd conss, 0 impls, 5100 clqs
   (0.2s) probing: 51/5092 (1.0%) - 0 fixings, 0 aggregations, 0 implications, 0 bound changes
   (0.2s) probing aborted: 50/50 successive totally useless probings
   (0.2s) symmetry computation started: requiring (bin +, int -, cont +), (fixed: bin -, int +, cont -)
   (0.2s) no symmetry present
presolving (3 rounds: 3 fast, 2 medium, 2 exhaustive):
 75 deleted vars, 5025 deleted constraints, 0 added constraints, 0 tightened bounds, 0 added holes, 0 changed sides, 67 changed coefficients
 0 implications, 5100 cliques
presolved problem has 5092 variables (5092 bin, 0 int, 0 impl, 0 cont) and 5167 constraints
     67 constraints of type <knapsack>
   5100 constraints of type <setppc>
Presolving Time: 0.22

 time | node  | left  |LP iter|LP it/n|mem/heur|mdpt |vars |cons |rows |cuts |sepa|confs|strbr|  dualbound   | primalbound  |  gap   | compl. 
p 0.3s|     1 |     0 |     0 |     - |  clique|   0 |5092 |5167 |5167 |   0 |  0 |   0 |   0 | 0.000000e+00 | 1.606110e+05 |    Inf | unknown
  3.8s|     1 |     0 | 10316 |     - |    77M |   0 |5092 |5291 |5167 |   0 |  0 | 124 |   0 | 1.604692e+04 | 1.606110e+05 | 900.88%| unknown
r 3.8s|     1 |     0 | 10316 |     - |shifting|   0 |5092 |5288 |5167 |   0 |  0 | 124 |   0 | 1.604692e+04 | 2.789937e+04 |  73.86%| unknown
  4.1s|     1 |     0 | 10391 |     - |    78M |   0 |5092 |5285 |5171 |   4 |  1 | 124 |   0 | 1.605238e+04 | 2.789937e+04 |  73.80%| unknown
r 4.2s|     1 |     0 | 10391 |     - |shifting|   0 |5092 |5285 |5171 |   4 |  1 | 124 |   0 | 1.605238e+04 | 1.978715e+04 |  23.27%| unknown
  4.3s|     1 |     0 | 10524 |     - |    79M |   0 |5092 |5279 |5174 |   7 |  2 | 124 |   0 | 1.605635e+04 | 1.978715e+04 |  23.24%| unknown
  4.4s|     1 |     0 | 10644 |     - |    79M |   0 |5092 |5277 |5178 |  11 |  3 | 124 |   0 | 1.605811e+04 | 1.978715e+04 |  23.22%| unknown
  4.5s|     1 |     0 | 10680 |     - |    80M |   0 |5092 |5275 |5179 |  12 |  4 | 124 |   0 | 1.605825e+04 | 1.978715e+04 |  23.22%| unknown
  4.7s|     1 |     0 | 10769 |     - |    80M |   0 |5092 |5272 |5181 |  14 |  5 | 124 |   0 | 1.606037e+04 | 1.978715e+04 |  23.20%| unknown
  4.8s|     1 |     0 | 10781 |     - |    81M |   0 |5092 |5270 |5182 |  15 |  6 | 124 |   0 | 1.606041e+04 | 1.978715e+04 |  23.20%| unknown
  4.9s|     1 |     0 | 10820 |     - |    81M |   0 |5092 |5269 |5184 |  17 |  8 | 124 |   0 | 1.606185e+04 | 1.978715e+04 |  23.19%| unknown
  5.0s|     1 |     0 | 10856 |     - |    82M |   0 |5092 |5262 |5189 |  22 |  9 | 124 |   0 | 1.606245e+04 | 1.978715e+04 |  23.19%| unknown
  5.2s|     1 |     0 | 10868 |     - |    83M |   0 |5092 |5260 |5190 |  23 | 11 | 124 |   0 | 1.606269e+04 | 1.978715e+04 |  23.19%| unknown
L12.2s|     1 |     0 | 28544 |     - |    rens|   0 |5092 |5255 |5190 |  23 | 13 | 124 |   0 | 1.606269e+04 | 1.620801e+04 |   0.90%| unknown
 12.3s|     1 |     0 | 28544 |     - |    84M |   0 |5092 |5251 |5190 |  23 | 13 | 124 |   0 | 1.606269e+04 | 1.620801e+04 |   0.90%| unknown
 time | node  | left  |LP iter|LP it/n|mem/heur|mdpt |vars |cons |rows |cuts |sepa|confs|strbr|  dualbound   | primalbound  |  gap   | compl. 
 12.3s|     1 |     0 | 28544 |     - |    85M |   0 |5092 |5251 |3859 |  23 | 13 | 124 |   0 | 1.606269e+04 | 1.620801e+04 |   0.90%| unknown
 12.4s|     1 |     0 | 28578 |     - |    85M |   0 |5092 |3874 |3841 |  27 | 14 | 124 |   0 | 1.606318e+04 | 1.620801e+04 |   0.90%| unknown
 12.4s|     1 |     0 | 28578 |     - |    85M |   0 |5092 |3874 |3832 |  27 | 14 | 124 |   0 | 1.606318e+04 | 1.620801e+04 |   0.90%| unknown
 12.4s|     1 |     0 | 28591 |     - |    85M |   0 |5092 |3874 |3834 |  29 | 15 | 124 |   0 | 1.606319e+04 | 1.620801e+04 |   0.90%| unknown
(run 1, node 1) restarting after 2079 global fixings of integer variables

(restart) converted 19 cuts from the global cut pool into linear constraints

presolving:
(round 1, fast)       2079 del vars, 31 del conss, 0 add conss, 0 chg bounds, 3 chg sides, 235 chg coeffs, 0 upgd conss, 0 impls, 2976 clqs
   (12.4s) running MILP presolver
   (12.5s) MILP presolver found nothing
(round 2, exhaustive) 2079 del vars, 31 del conss, 0 add conss, 0 chg bounds, 3 chg sides, 235 chg coeffs, 18 upgd conss, 0 impls, 2976 clqs
presolving (3 rounds: 3 fast, 2 medium, 2 exhaustive):
 2079 deleted vars, 31 deleted constraints, 0 added constraints, 0 tightened bounds, 0 added holes, 3 changed sides, 243 changed coefficients
 0 implications, 2976 cliques
presolved problem has 3013 variables (3013 bin, 0 int, 0 impl, 0 cont) and 3040 constraints
     62 constraints of type <knapsack>
   2976 constraints of type <setppc>
      2 constraints of type <linear>
Presolving Time: 0.31
transformed 2/4 original solutions to the transformed problem space

 time | node  | left  |LP iter|LP it/n|mem/heur|mdpt |vars |cons |rows |cuts |sepa|confs|strbr|  dualbound   | primalbound  |  gap   | compl. 
 13.3s|     1 |     0 | 32724 |     - |    85M |   0 |3013 |3040 |3039 |   0 |  0 | 124 |   0 | 1.606452e+04 | 1.620801e+04 |   0.89%| unknown
 13.3s|     1 |     0 | 32724 |     - |    85M |   0 |3013 |3040 |2444 |   0 |  0 | 124 |   0 | 1.606452e+04 | 1.620801e+04 |   0.89%| unknown
 13.4s|     1 |     0 | 32790 |     - |    85M |   0 |3013 |2445 |2435 |   6 |  1 | 124 |   0 | 1.606644e+04 | 1.620801e+04 |   0.88%| unknown
 13.4s|     1 |     0 | 32790 |     - |    85M |   0 |3013 |2445 |2427 |   6 |  1 | 124 |   0 | 1.606644e+04 | 1.620801e+04 |   0.88%| unknown
 13.4s|     1 |     0 | 32800 |     - |    85M |   0 |3013 |2428 |2429 |   8 |  2 | 124 |   0 | 1.606647e+04 | 1.620801e+04 |   0.88%| unknown
 13.5s|     1 |     0 | 32842 |     - |    87M |   0 |3013 |2428 |2432 |  11 |  3 | 124 |   0 | 1.606661e+04 | 1.620801e+04 |   0.88%| unknown
 13.5s|     1 |     0 | 32842 |     - |    87M |   0 |3013 |2428 |2425 |  11 |  3 | 124 |   0 | 1.606661e+04 | 1.620801e+04 |   0.88%| unknown
 13.5s|     1 |     0 | 32890 |     - |    87M |   0 |3013 |2421 |2427 |  13 |  4 | 124 |   0 | 1.606835e+04 | 1.620801e+04 |   0.87%| unknown
 13.5s|     1 |     0 | 32890 |     - |    87M |   0 |3013 |2421 |2423 |  13 |  4 | 124 |   0 | 1.606835e+04 | 1.620801e+04 |   0.87%| unknown
 13.6s|     1 |     0 | 32920 |     - |    87M |   0 |3013 |2417 |2427 |  17 |  5 | 124 |   0 | 1.606925e+04 | 1.620801e+04 |   0.86%| unknown
 13.6s|     1 |     0 | 32920 |     - |    87M |   0 |3013 |2417 |2420 |  17 |  5 | 124 |   0 | 1.606925e+04 | 1.620801e+04 |   0.86%| unknown
 13.6s|     1 |     0 | 32951 |     - |    88M |   0 |3013 |2410 |2424 |  21 |  6 | 124 |   0 | 1.606988e+04 | 1.620801e+04 |   0.86%| unknown
 13.7s|     1 |     0 | 32951 |     - |    88M |   0 |3013 |2410 |2423 |  21 |  6 | 124 |   0 | 1.606988e+04 | 1.620801e+04 |   0.86%| unknown
 13.7s|     1 |     0 | 32969 |     - |    88M |   0 |3013 |2409 |2424 |  22 |  7 | 124 |   0 | 1.607020e+04 | 1.620801e+04 |   0.86%| unknown
 13.7s|     1 |     0 | 32969 |     - |    88M |   0 |3013 |2409 |2423 |  22 |  7 | 124 |   0 | 1.607020e+04 | 1.620801e+04 |   0.86%| unknown
 time | node  | left  |LP iter|LP it/n|mem/heur|mdpt |vars |cons |rows |cuts |sepa|confs|strbr|  dualbound   | primalbound  |  gap   | compl. 
 13.8s|     1 |     0 | 32997 |     - |    88M |   0 |3013 |2408 |2426 |  25 |  8 | 124 |   0 | 1.607090e+04 | 1.620801e+04 |   0.85%| unknown
 13.8s|     1 |     0 | 32997 |     - |    88M |   0 |3013 |2408 |2425 |  25 |  8 | 124 |   0 | 1.607090e+04 | 1.620801e+04 |   0.85%| unknown
 13.8s|     1 |     0 | 33011 |     - |    88M |   0 |3013 |2407 |2426 |  26 |  9 | 124 |   0 | 1.607092e+04 | 1.620801e+04 |   0.85%| unknown
 13.9s|     1 |     0 | 33018 |     - |    88M |   0 |3013 |2407 |2427 |  27 | 10 | 124 |   0 | 1.607100e+04 | 1.620801e+04 |   0.85%| unknown
 13.9s|     1 |     0 | 33020 |     - |    88M |   0 |3013 |2407 |2428 |  28 | 11 | 124 |   0 | 1.607103e+04 | 1.620801e+04 |   0.85%| unknown
 13.9s|     1 |     0 | 33045 |     - |    88M |   0 |3013 |2407 |2431 |  31 | 12 | 124 |   0 | 1.607132e+04 | 1.620801e+04 |   0.85%| unknown
(run 2, node 1) restarting after 1015 global fixings of integer variables

(restart) converted 27 cuts from the global cut pool into linear constraints

presolving:
(round 1, fast)       1015 del vars, 0 del conss, 0 add conss, 0 chg bounds, 1 chg sides, 3 chg coeffs, 0 upgd conss, 0 impls, 1911 clqs
   (14.3s) running MILP presolver
   (14.3s) MILP presolver found nothing
(round 2, exhaustive) 1015 del vars, 0 del conss, 0 add conss, 0 chg bounds, 1 chg sides, 3 chg coeffs, 23 upgd conss, 0 impls, 1911 clqs
presolving (3 rounds: 3 fast, 2 medium, 2 exhaustive):
 1015 deleted vars, 0 deleted constraints, 0 added constraints, 0 tightened bounds, 0 added holes, 1 changed sides, 9 changed coefficients
 0 implications, 1911 cliques
presolved problem has 1998 variables (1998 bin, 0 int, 0 impl, 0 cont) and 1989 constraints
     72 constraints of type <knapsack>
   1911 constraints of type <setppc>
      6 constraints of type <linear>
Presolving Time: 0.34
transformed 3/5 original solutions to the transformed problem space

 time | node  | left  |LP iter|LP it/n|mem/heur|mdpt |vars |cons |rows |cuts |sepa|confs|strbr|  dualbound   | primalbound  |  gap   | compl. 
 14.7s|     1 |     0 | 37115 |     - |    89M |   0 |1998 |1989 |1988 |   0 |  0 | 124 |   0 | 1.607132e+04 | 1.620801e+04 |   0.85%| unknown
 14.7s|     1 |     0 | 37115 |     - |    89M |   0 |1998 |1989 |1752 |   0 |  0 | 124 |   0 | 1.607132e+04 | 1.620801e+04 |   0.85%| unknown
 14.8s|     1 |     0 | 37136 |     - |    90M |   0 |1998 |1753 |1752 |   4 |  1 | 124 |   0 | 1.607172e+04 | 1.620801e+04 |   0.85%| unknown
 14.8s|     1 |     0 | 37136 |     - |    90M |   0 |1998 |1753 |1749 |   4 |  1 | 124 |   0 | 1.607172e+04 | 1.620801e+04 |   0.85%| unknown
 14.8s|     1 |     0 | 37139 |     - |    90M |   0 |1998 |1746 |1750 |   5 |  2 | 124 |   0 | 1.607172e+04 | 1.620801e+04 |   0.85%| unknown
 14.9s|     1 |     0 | 37145 |     - |    90M |   0 |1998 |1746 |1752 |   7 |  4 | 124 |   0 | 1.607173e+04 | 1.620801e+04 |   0.85%| unknown
(run 3, node 1) restarting after 322 global fixings of integer variables

(restart) converted 7 cuts from the global cut pool into linear constraints

presolving:
(round 1, fast)       322 del vars, 0 del conss, 0 add conss, 0 chg bounds, 0 chg sides, 1 chg coeffs, 0 upgd conss, 0 impls, 1594 clqs
   (15.2s) running MILP presolver
   (15.2s) MILP presolver found nothing
(round 2, exhaustive) 322 del vars, 0 del conss, 0 add conss, 0 chg bounds, 0 chg sides, 1 chg coeffs, 7 upgd conss, 0 impls, 1594 clqs
presolving (3 rounds: 3 fast, 2 medium, 2 exhaustive):
 322 deleted vars, 0 deleted constraints, 0 added constraints, 0 tightened bounds, 0 added holes, 0 changed sides, 2 changed coefficients
 0 implications, 1594 cliques
presolved problem has 1676 variables (1676 bin, 0 int, 0 impl, 0 cont) and 1675 constraints
     75 constraints of type <knapsack>
   1594 constraints of type <setppc>
      6 constraints of type <linear>
Presolving Time: 0.38
transformed 4/6 original solutions to the transformed problem space

 time | node  | left  |LP iter|LP it/n|mem/heur|mdpt |vars |cons |rows |cuts |sepa|confs|strbr|  dualbound   | primalbound  |  gap   | compl. 
 15.5s|     1 |     0 | 40743 |     - |    90M |   0 |1676 |1675 |1674 |   0 |  0 | 124 |   0 | 1.607189e+04 | 1.620801e+04 |   0.85%| unknown
 15.5s|     1 |     0 | 40743 |     - |    90M |   0 |1676 |1675 |1436 |   0 |  0 | 124 |   0 | 1.607189e+04 | 1.620801e+04 |   0.85%| unknown
 15.6s|     1 |     0 | 40747 |     - |    91M |   0 |1676 |1437 |1434 |   1 |  1 | 124 |   0 | 1.607193e+04 | 1.620801e+04 |   0.85%| unknown
 15.6s|     1 |     0 | 40757 |     - |    91M |   0 |1676 |1434 |1437 |   4 |  2 | 124 |   0 | 1.607207e+04 | 1.620801e+04 |   0.85%| unknown
 15.7s|     1 |     0 | 40762 |     - |    91M |   0 |1676 |1434 |1440 |   7 |  3 | 124 |   0 | 1.607209e+04 | 1.620801e+04 |   0.85%| unknown
 15.7s|     1 |     0 | 40762 |     - |    91M |   0 |1676 |1434 |1439 |   7 |  3 | 124 |   0 | 1.607209e+04 | 1.620801e+04 |   0.85%| unknown
 15.7s|     1 |     0 | 40766 |     - |    91M |   0 |1676 |1433 |1441 |   9 |  4 | 124 |   0 | 1.607210e+04 | 1.620801e+04 |   0.85%| unknown
 15.7s|     1 |     0 | 40785 |     - |    91M |   0 |1676 |1433 |1442 |  10 |  5 | 124 |   0 | 1.607231e+04 | 1.620801e+04 |   0.84%| unknown
 15.8s|     1 |     0 | 40787 |     - |    92M |   0 |1676 |1433 |1443 |  11 |  6 | 124 |   0 | 1.607232e+04 | 1.620801e+04 |   0.84%| unknown
 15.8s|     1 |     0 | 40798 |     - |    92M |   0 |1676 |1433 |1444 |  12 |  7 | 124 |   0 | 1.607240e+04 | 1.620801e+04 |   0.84%| unknown
(run 4, node 1) restarting after 275 global fixings of integer variables

(restart) converted 12 cuts from the global cut pool into linear constraints

presolving:
(round 1, fast)       275 del vars, 0 del conss, 0 add conss, 0 chg bounds, 0 chg sides, 0 chg coeffs, 0 upgd conss, 0 impls, 1322 clqs
   (16.1s) running MILP presolver
   (16.1s) MILP presolver found nothing
(round 2, exhaustive) 275 del vars, 0 del conss, 0 add conss, 0 chg bounds, 0 chg sides, 0 chg coeffs, 11 upgd conss, 0 impls, 1322 clqs
presolving (3 rounds: 3 fast, 2 medium, 2 exhaustive):
 275 deleted vars, 0 deleted constraints, 0 added constraints, 0 tightened bounds, 0 added holes, 0 changed sides, 4 changed coefficients
 0 implications, 1322 cliques
presolved problem has 1401 variables (1401 bin, 0 int, 0 impl, 0 cont) and 1416 constraints
     83 constraints of type <knapsack>
   1322 constraints of type <setppc>
      7 constraints of type <linear>
      4 constraints of type <logicor>
Presolving Time: 0.43
transformed 5/7 original solutions to the transformed problem space

 time | node  | left  |LP iter|LP it/n|mem/heur|mdpt |vars |cons |rows |cuts |sepa|confs|strbr|  dualbound   | primalbound  |  gap   | compl. 
 16.3s|     1 |     0 | 42895 |     - |    93M |   0 |1401 |1416 |1411 |   0 |  0 | 128 |   0 | 1.607246e+04 | 1.620801e+04 |   0.84%| unknown
 16.3s|     1 |     0 | 42895 |     - |    93M |   0 |1401 |1416 |1278 |   0 |  0 | 128 |   0 | 1.607246e+04 | 1.620801e+04 |   0.84%| unknown
 16.4s|     1 |     0 | 42895 |     - |    93M |   0 |1401 |1283 |1275 |   0 |  1 | 128 |   0 | 1.607246e+04 | 1.620801e+04 |   0.84%| unknown
 16.4s|     1 |     0 | 42897 |     - |    93M |   0 |1401 |1280 |1276 |   1 |  2 | 128 |   0 | 1.607247e+04 | 1.620801e+04 |   0.84%| unknown
 16.5s|     1 |     0 | 42897 |     - |    93M |   0 |1401 |1280 |1275 |   1 |  2 | 128 |   0 | 1.607247e+04 | 1.620801e+04 |   0.84%| unknown
(run 5, node 1) restarting after 207 global fixings of integer variables

(restart) converted 1 cuts from the global cut pool into linear constraints

presolving:
(round 1, fast)       207 del vars, 0 del conss, 0 add conss, 0 chg bounds, 0 chg sides, 0 chg coeffs, 0 upgd conss, 0 impls, 1118 clqs
(round 2, exhaustive) 207 del vars, 0 del conss, 0 add conss, 0 chg bounds, 0 chg sides, 0 chg coeffs, 1 upgd conss, 0 impls, 1118 clqs
presolving (3 rounds: 3 fast, 2 medium, 2 exhaustive):
 207 deleted vars, 0 deleted constraints, 0 added constraints, 0 tightened bounds, 0 added holes, 0 changed sides, 0 changed coefficients
 0 implications, 1118 cliques
presolved problem has 1194 variables (1194 bin, 0 int, 0 impl, 0 cont) and 1209 constraints
     81 constraints of type <knapsack>
   1118 constraints of type <setppc>
      6 constraints of type <linear>
      4 constraints of type <logicor>
Presolving Time: 0.46
transformed 6/8 original solutions to the transformed problem space

 time | node  | left  |LP iter|LP it/n|mem/heur|mdpt |vars |cons |rows |cuts |sepa|confs|strbr|  dualbound   | primalbound  |  gap   | compl. 
 17.0s|     1 |     0 | 45257 |     - |    94M |   0 |1194 |1209 |1205 |   0 |  0 | 128 |   0 | 1.607247e+04 | 1.620801e+04 |   0.84%| unknown
 17.0s|     1 |     0 | 45257 |     - |    94M |   0 |1194 |1209 |1094 |   0 |  0 | 128 |   0 | 1.607247e+04 | 1.620801e+04 |   0.84%| unknown
 17.0s|     1 |     0 | 45257 |     - |    94M |   0 |1194 |1098 |1091 |   0 |  1 | 128 |   0 | 1.607247e+04 | 1.620801e+04 |   0.84%| unknown
(run 6, node 1) restarting after 207 global fixings of integer variables

presolving:
(round 1, fast)       207 del vars, 0 del conss, 0 add conss, 0 chg bounds, 0 chg sides, 0 chg coeffs, 0 upgd conss, 0 impls, 914 clqs
   (17.2s) running MILP presolver
   (17.2s) MILP presolver found nothing
(round 2, exhaustive) 207 del vars, 1 del conss, 0 add conss, 0 chg bounds, 0 chg sides, 0 chg coeffs, 0 upgd conss, 0 impls, 914 clqs
presolving (3 rounds: 3 fast, 2 medium, 2 exhaustive):
 207 deleted vars, 1 deleted constraints, 0 added constraints, 0 tightened bounds, 0 added holes, 0 changed sides, 0 changed coefficients
 0 implications, 914 cliques
presolved problem has 987 variables (987 bin, 0 int, 0 impl, 0 cont) and 1004 constraints
     78 constraints of type <knapsack>
    914 constraints of type <setppc>
      6 constraints of type <linear>
      6 constraints of type <logicor>
Presolving Time: 0.49
transformed 6/8 original solutions to the transformed problem space

 time | node  | left  |LP iter|LP it/n|mem/heur|mdpt |vars |cons |rows |cuts |sepa|confs|strbr|  dualbound   | primalbound  |  gap   | compl. 
 17.4s|     1 |     0 | 47396 |     - |    95M |   0 | 987 |1004 | 998 |   0 |  0 | 131 |   0 | 1.607247e+04 | 1.620801e+04 |   0.84%| unknown
 17.4s|     1 |     0 | 47396 |     - |    95M |   0 | 987 |1004 | 962 |   0 |  0 | 131 |   0 | 1.607247e+04 | 1.620801e+04 |   0.84%| unknown
 17.6s|     1 |     0 | 47450 |     - |    99M |   0 | 987 | 968 | 964 |   3 |  1 | 131 |   0 | 1.607393e+04 | 1.620801e+04 |   0.83%| unknown
 17.6s|     1 |     0 | 47450 |     - |    99M |   0 | 987 | 968 | 961 |   3 |  1 | 131 |   0 | 1.607393e+04 | 1.620801e+04 |   0.83%| unknown
 17.9s|     1 |     0 | 47498 |     - |    99M |   0 | 987 | 964 | 962 |   5 |  2 | 131 |   0 | 1.607571e+04 | 1.620801e+04 |   0.82%| unknown
 17.9s|     1 |     0 | 47498 |     - |    99M |   0 | 987 | 964 | 962 |   5 |  2 | 131 |   0 | 1.607571e+04 | 1.620801e+04 |   0.82%| unknown
 18.2s|     1 |     0 | 47535 |     - |   103M |   0 | 987 | 963 | 963 |   6 |  3 | 131 |   0 | 1.607599e+04 | 1.620801e+04 |   0.82%| unknown
 18.5s|     1 |     0 | 47613 |     - |   105M |   0 | 987 | 963 | 966 |   9 |  4 | 131 |   0 | 1.607912e+04 | 1.620801e+04 |   0.80%| unknown
 18.5s|     1 |     0 | 47613 |     - |   106M |   0 | 987 | 963 | 960 |   9 |  4 | 131 |   0 | 1.607912e+04 | 1.620801e+04 |   0.80%| unknown
 18.8s|     1 |     0 | 47636 |     - |   109M |   0 | 987 | 957 | 961 |  10 |  5 | 131 |   0 | 1.607953e+04 | 1.620801e+04 |   0.80%| unknown
 19.2s|     1 |     0 | 47683 |     - |   112M |   0 | 987 | 957 | 962 |  11 |  6 | 131 |   0 | 1.608001e+04 | 1.620801e+04 |   0.80%| unknown
 19.6s|     1 |     0 | 47740 |     - |   115M |   0 | 987 | 957 | 964 |  13 |  7 | 131 |   0 | 1.608136e+04 | 1.620801e+04 |   0.79%| unknown
 19.6s|     1 |     0 | 47740 |     - |   115M |   0 | 987 | 957 | 959 |  13 |  7 | 131 |   0 | 1.608136e+04 | 1.620801e+04 |   0.79%| unknown
 20.0s|     1 |     0 | 47765 |     - |   117M |   0 | 987 | 952 | 960 |  14 |  8 | 131 |   0 | 1.608185e+04 | 1.620801e+04 |   0.78%| unknown
 20.4s|     1 |     0 | 47842 |     - |   119M |   0 | 987 | 952 | 963 |  17 |  9 | 131 |   0 | 1.608482e+04 | 1.620801e+04 |   0.77%| unknown
 time | node  | left  |LP iter|LP it/n|mem/heur|mdpt |vars |cons |rows |cuts |sepa|confs|strbr|  dualbound   | primalbound  |  gap   | compl. 
 20.4s|     1 |     0 | 47842 |     - |   119M |   0 | 987 | 952 | 959 |  17 |  9 | 131 |   0 | 1.608482e+04 | 1.620801e+04 |   0.77%| unknown
 20.8s|     1 |     0 | 47866 |     - |   121M |   0 | 987 | 948 | 961 |  19 | 10 | 131 |   0 | 1.608588e+04 | 1.620801e+04 |   0.76%| unknown
 20.8s|     1 |     0 | 47866 |     - |   121M |   0 | 987 | 948 | 961 |  19 | 10 | 131 |   0 | 1.608588e+04 | 1.620801e+04 |   0.76%| unknown
 21.0s|     1 |     0 | 47881 |     - |   122M |   0 | 987 | 948 | 962 |  20 | 11 | 131 |   0 | 1.608617e+04 | 1.620801e+04 |   0.76%| unknown
 21.1s|     1 |     0 | 47901 |     - |   122M |   0 | 987 | 948 | 963 |  21 | 12 | 131 |   0 | 1.608630e+04 | 1.620801e+04 |   0.76%| unknown
 21.2s|     1 |     0 | 47911 |     - |   122M |   0 | 987 | 948 | 968 |  26 | 13 | 131 |   0 | 1.608632e+04 | 1.620801e+04 |   0.76%| unknown
 21.4s|     1 |     0 | 47923 |     - |   122M |   0 | 987 | 948 | 925 |  29 | 14 | 131 |   0 | 1.608638e+04 | 1.620801e+04 |   0.76%| unknown
 21.5s|     1 |     0 | 47936 |     - |   122M |   0 | 987 | 948 | 927 |  31 | 15 | 131 |   0 | 1.608645e+04 | 1.620801e+04 |   0.76%| unknown
 21.7s|     1 |     0 | 47937 |     - |   122M |   0 | 987 | 948 | 928 |  32 | 16 | 131 |   0 | 1.608645e+04 | 1.620801e+04 |   0.76%| unknown
 21.8s|     1 |     0 | 47945 |     - |   122M |   0 | 987 | 948 | 930 |  34 | 17 | 131 |   0 | 1.608651e+04 | 1.620801e+04 |   0.76%| unknown
 21.9s|     1 |     0 | 47950 |     - |   122M |   0 | 987 | 948 | 932 |  36 | 18 | 131 |   0 | 1.608653e+04 | 1.620801e+04 |   0.76%| unknown
 22.0s|     1 |     0 | 47954 |     - |   122M |   0 | 987 | 948 | 933 |  37 | 19 | 131 |   0 | 1.608653e+04 | 1.620801e+04 |   0.76%| unknown
(run 7, node 1) restarting after 111 global fixings of integer variables

(restart) converted 30 cuts from the global cut pool into linear constraints

presolving:
(round 1, fast)       111 del vars, 0 del conss, 0 add conss, 0 chg bounds, 0 chg sides, 0 chg coeffs, 0 upgd conss, 0 impls, 810 clqs
(round 2, exhaustive) 111 del vars, 0 del conss, 0 add conss, 0 chg bounds, 0 chg sides, 0 chg coeffs, 13 upgd conss, 0 impls, 810 clqs
presolving (3 rounds: 3 fast, 2 medium, 2 exhaustive):
 111 deleted vars, 0 deleted constraints, 0 added constraints, 0 tightened bounds, 0 added holes, 0 changed sides, 0 changed coefficients
 0 implications, 810 cliques
presolved problem has 876 variables (876 bin, 0 int, 0 impl, 0 cont) and 928 constraints
     89 constraints of type <knapsack>
    810 constraints of type <setppc>
     23 constraints of type <linear>
      6 constraints of type <logicor>
Presolving Time: 0.54
transformed 6/8 original solutions to the transformed problem space

 time | node  | left  |LP iter|LP it/n|mem/heur|mdpt |vars |cons |rows |cuts |sepa|confs|strbr|  dualbound   | primalbound  |  gap   | compl. 
 22.4s|     1 |     0 | 50125 |     - |   112M |   0 | 876 | 928 | 922 |   0 |  0 | 131 |   0 | 1.608653e+04 | 1.620801e+04 |   0.76%| unknown
 22.4s|     1 |     0 | 50125 |     - |   112M |   0 | 876 | 928 | 775 |   0 |  0 | 131 |   0 | 1.608653e+04 | 1.620801e+04 |   0.76%| unknown
 22.8s|     1 |     0 | 50208 |     - |   113M |   0 | 876 | 781 | 773 |   1 |  1 | 131 |   0 | 1.608698e+04 | 1.620801e+04 |   0.75%| unknown
 22.8s|     1 |     0 | 50208 |     - |   113M |   0 | 876 | 781 | 772 |   1 |  1 | 131 |   0 | 1.608698e+04 | 1.620801e+04 |   0.75%| unknown
 23.2s|     1 |     0 | 50226 |     - |   115M |   0 | 876 | 777 | 774 |   3 |  2 | 131 |   0 | 1.608719e+04 | 1.620801e+04 |   0.75%| unknown
 23.3s|     1 |     0 | 50226 |     - |   115M |   0 | 876 | 777 | 773 |   3 |  2 | 131 |   0 | 1.608719e+04 | 1.620801e+04 |   0.75%| unknown
 23.7s|     1 |     0 | 50228 |     - |   118M |   0 | 876 | 776 | 774 |   4 |  3 | 131 |   0 | 1.608719e+04 | 1.620801e+04 |   0.75%| unknown
 24.1s|     1 |     0 | 50243 |     - |   119M |   0 | 876 | 776 | 775 |   5 |  4 | 131 |   0 | 1.608725e+04 | 1.620801e+04 |   0.75%| unknown
 24.6s|     1 |     0 | 50267 |     - |   121M |   0 | 876 | 776 | 777 |   7 |  5 | 131 |   0 | 1.608740e+04 | 1.620801e+04 |   0.75%| unknown
 24.6s|     1 |     0 | 50267 |     - |   121M |   0 | 876 | 776 | 776 |   7 |  5 | 131 |   0 | 1.608740e+04 | 1.620801e+04 |   0.75%| unknown
 25.1s|     1 |     0 | 50305 |     - |   123M |   0 | 876 | 775 | 777 |   8 |  6 | 131 |   0 | 1.608775e+04 | 1.620801e+04 |   0.75%| unknown
 25.1s|     1 |     0 | 50305 |     - |   123M |   0 | 876 | 775 | 776 |   8 |  6 | 131 |   0 | 1.608775e+04 | 1.620801e+04 |   0.75%| unknown
 25.5s|     1 |     0 | 50374 |     - |   124M |   0 | 876 | 774 | 777 |   9 |  7 | 131 |   0 | 1.608893e+04 | 1.620801e+04 |   0.74%| unknown
 25.5s|     1 |     0 | 50374 |     - |   124M |   0 | 876 | 774 | 776 |   9 |  7 | 131 |   0 | 1.608893e+04 | 1.620801e+04 |   0.74%| unknown
 25.9s|     1 |     0 | 50527 |     - |   125M |   0 | 876 | 773 | 779 |  12 |  8 | 131 |   0 | 1.609054e+04 | 1.620801e+04 |   0.73%| unknown
 time | node  | left  |LP iter|LP it/n|mem/heur|mdpt |vars |cons |rows |cuts |sepa|confs|strbr|  dualbound   | primalbound  |  gap   | compl. 
 25.9s|     1 |     0 | 50527 |     - |   125M |   0 | 876 | 773 | 775 |  12 |  8 | 131 |   0 | 1.609054e+04 | 1.620801e+04 |   0.73%| unknown
 26.2s|     1 |     0 | 50584 |     - |   128M |   0 | 876 | 769 | 777 |  14 |  9 | 131 |   0 | 1.609233e+04 | 1.620801e+04 |   0.72%| unknown
 26.2s|     1 |     0 | 50584 |     - |   128M |   0 | 876 | 769 | 773 |  14 |  9 | 131 |   0 | 1.609233e+04 | 1.620801e+04 |   0.72%| unknown
 26.5s|     1 |     0 | 50646 |     - |   131M |   0 | 876 | 765 | 774 |  15 | 10 | 131 |   0 | 1.609398e+04 | 1.620801e+04 |   0.71%| unknown
 26.5s|     1 |     0 | 50646 |     - |   131M |   0 | 876 | 765 | 772 |  15 | 10 | 131 |   0 | 1.609398e+04 | 1.620801e+04 |   0.71%| unknown
 26.6s|     1 |     0 | 50672 |     - |   131M |   0 | 876 | 763 | 774 |  17 | 11 | 131 |   0 | 1.609420e+04 | 1.620801e+04 |   0.71%| unknown
 26.8s|     1 |     0 | 50688 |     - |   131M |   0 | 876 | 763 | 775 |  18 | 12 | 131 |   0 | 1.609433e+04 | 1.620801e+04 |   0.71%| unknown
 27.0s|     1 |     0 | 50695 |     - |   131M |   0 | 876 | 763 | 719 |  19 | 13 | 131 |   0 | 1.609435e+04 | 1.620801e+04 |   0.71%| unknown
 27.1s|     1 |     0 | 50699 |     - |   131M |   0 | 876 | 763 | 721 |  21 | 14 | 131 |   0 | 1.609436e+04 | 1.620801e+04 |   0.71%| unknown
 27.2s|     1 |     0 | 50709 |     - |   131M |   0 | 876 | 763 | 723 |  23 | 15 | 131 |   0 | 1.609438e+04 | 1.620801e+04 |   0.71%| unknown
 27.4s|     1 |     0 | 50730 |     - |   131M |   0 | 876 | 763 | 725 |  25 | 16 | 131 |   0 | 1.609448e+04 | 1.620801e+04 |   0.71%| unknown
 27.4s|     1 |     0 | 50730 |     - |   131M |   0 | 876 | 763 | 723 |  25 | 16 | 131 |   0 | 1.609448e+04 | 1.620801e+04 |   0.71%| unknown
 27.5s|     1 |     0 | 50733 |     - |   131M |   0 | 876 | 761 | 725 |  27 | 17 | 131 |   0 | 1.609450e+04 | 1.620801e+04 |   0.71%| unknown
 27.7s|     1 |     0 | 50739 |     - |   131M |   0 | 876 | 761 | 726 |  28 | 18 | 131 |   0 | 1.609450e+04 | 1.620801e+04 |   0.71%| unknown
 27.8s|     1 |     0 | 50746 |     - |   131M |   0 | 876 | 761 | 707 |  30 | 19 | 131 |   0 | 1.609452e+04 | 1.620801e+04 |   0.71%| unknown
(run 8, node 1) restarting after 194 global fixings of integer variables

(restart) converted 22 cuts from the global cut pool into linear constraints

presolving:
(round 1, fast)       194 del vars, 0 del conss, 0 add conss, 0 chg bounds, 0 chg sides, 1 chg coeffs, 0 upgd conss, 0 impls, 624 clqs
   (28.0s) running MILP presolver
   (28.0s) MILP presolver found nothing
(round 2, exhaustive) 194 del vars, 0 del conss, 0 add conss, 0 chg bounds, 0 chg sides, 1 chg coeffs, 10 upgd conss, 0 impls, 624 clqs
presolving (3 rounds: 3 fast, 2 medium, 2 exhaustive):
 194 deleted vars, 0 deleted constraints, 0 added constraints, 0 tightened bounds, 0 added holes, 0 changed sides, 2 changed coefficients
 0 implications, 624 cliques
presolved problem has 682 variables (682 bin, 0 int, 0 impl, 0 cont) and 761 constraints
     96 constraints of type <knapsack>
    624 constraints of type <setppc>
     35 constraints of type <linear>
      6 constraints of type <logicor>
Presolving Time: 0.58
transformed 6/8 original solutions to the transformed problem space

 time | node  | left  |LP iter|LP it/n|mem/heur|mdpt |vars |cons |rows |cuts |sepa|confs|strbr|  dualbound   | primalbound  |  gap   | compl. 
 28.1s|     1 |     0 | 52395 |     - |   124M |   0 | 682 | 761 | 755 |   0 |  0 | 131 |   0 | 1.609453e+04 | 1.620801e+04 |   0.71%| unknown
 28.1s|     1 |     0 | 52395 |     - |   124M |   0 | 682 | 761 | 726 |   0 |  0 | 131 |   0 | 1.609453e+04 | 1.620801e+04 |   0.71%| unknown
 28.4s|     1 |     0 | 52434 |     - |   126M |   0 | 682 | 732 | 726 |   1 |  1 | 131 |   0 | 1.609506e+04 | 1.620801e+04 |   0.70%| unknown
 28.5s|     1 |     0 | 52434 |     - |   126M |   0 | 682 | 732 | 723 |   1 |  1 | 131 |   0 | 1.609506e+04 | 1.620801e+04 |   0.70%| unknown
 28.8s|     1 |     0 | 52478 |     - |   127M |   0 | 682 | 728 | 724 |   2 |  2 | 131 |   0 | 1.609524e+04 | 1.620801e+04 |   0.70%| unknown
 28.8s|     1 |     0 | 52478 |     - |   127M |   0 | 682 | 728 | 723 |   2 |  2 | 131 |   0 | 1.609524e+04 | 1.620801e+04 |   0.70%| unknown
 29.1s|     1 |     0 | 52498 |     - |   129M |   0 | 682 | 727 | 724 |   3 |  3 | 131 |   0 | 1.609529e+04 | 1.620801e+04 |   0.70%| unknown
 29.1s|     1 |     0 | 52498 |     - |   129M |   0 | 682 | 727 | 723 |   3 |  3 | 131 |   0 | 1.609529e+04 | 1.620801e+04 |   0.70%| unknown
 29.4s|     1 |     0 | 52524 |     - |   130M |   0 | 682 | 726 | 724 |   4 |  4 | 131 |   0 | 1.609538e+04 | 1.620801e+04 |   0.70%| unknown
 29.7s|     1 |     0 | 52562 |     - |   132M |   0 | 682 | 726 | 725 |   5 |  5 | 131 |   0 | 1.609541e+04 | 1.620801e+04 |   0.70%| unknown
 30.0s|     1 |     0 | 52613 |     - |   133M |   0 | 682 | 726 | 726 |   6 |  6 | 131 |   0 | 1.609547e+04 | 1.620801e+04 |   0.70%| unknown
 30.3s|     1 |     0 | 52655 |     - |   134M |   0 | 682 | 726 | 727 |   7 |  7 | 131 |   0 | 1.609551e+04 | 1.620801e+04 |   0.70%| unknown
 30.7s|     1 |     0 | 52677 |     - |   134M |   0 | 682 | 726 | 728 |   8 |  8 | 131 |   0 | 1.609555e+04 | 1.620801e+04 |   0.70%| unknown
 31.0s|     1 |     0 | 52695 |     - |   134M |   0 | 682 | 726 | 729 |   9 |  9 | 131 |   0 | 1.609556e+04 | 1.620801e+04 |   0.70%| unknown
 31.4s|     1 |     0 | 52803 |     - |   135M |   0 | 682 | 726 | 730 |  10 | 10 | 131 |   0 | 1.609582e+04 | 1.620801e+04 |   0.70%| unknown
 time | node  | left  |LP iter|LP it/n|mem/heur|mdpt |vars |cons |rows |cuts |sepa|confs|strbr|  dualbound   | primalbound  |  gap   | compl. 
 31.4s|     1 |     0 | 52803 |     - |   135M |   0 | 682 | 726 | 729 |  10 | 10 | 131 |   0 | 1.609582e+04 | 1.620801e+04 |   0.70%| unknown
 31.6s|     1 |     0 | 52810 |     - |   135M |   0 | 682 | 725 | 653 |  11 | 11 | 131 |   0 | 1.609582e+04 | 1.620801e+04 |   0.70%| unknown
 33.8s|     1 |     2 | 53618 |     - |   135M |   0 | 682 | 717 | 653 |  11 | 11 | 136 |  45 | 1.610161e+04 | 1.620801e+04 |   0.66%| unknown
(run 9, node 1) restarting after 50 global fixings of integer variables

(restart) converted 11 cuts from the global cut pool into linear constraints

presolving:
(round 1, fast)       50 del vars, 0 del conss, 0 add conss, 0 chg bounds, 0 chg sides, 0 chg coeffs, 0 upgd conss, 0 impls, 577 clqs
presolving (2 rounds: 2 fast, 1 medium, 1 exhaustive):
 50 deleted vars, 0 deleted constraints, 0 added constraints, 0 tightened bounds, 0 added holes, 0 changed sides, 0 changed coefficients
 0 implications, 577 cliques
presolved problem has 632 variables (632 bin, 0 int, 0 impl, 0 cont) and 728 constraints
     95 constraints of type <knapsack>
    577 constraints of type <setppc>
     46 constraints of type <linear>
     10 constraints of type <logicor>
Presolving Time: 0.63
transformed 6/8 original solutions to the transformed problem space

 time | node  | left  |LP iter|LP it/n|mem/heur|mdpt |vars |cons |rows |cuts |sepa|confs|strbr|  dualbound   | primalbound  |  gap   | compl. 
 34.0s|     1 |     0 | 54865 |     - |   130M |   0 | 632 | 728 | 717 |   0 |  0 | 136 |  45 | 1.610161e+04 | 1.620801e+04 |   0.66%| unknown
 34.0s|     1 |     0 | 54865 |     - |   130M |   0 | 632 | 728 | 689 |   0 |  0 | 136 |  45 | 1.610161e+04 | 1.620801e+04 |   0.66%| unknown
 34.4s|     1 |     0 | 54957 |     - |   131M |   0 | 632 | 700 | 691 |   2 |  1 | 136 |  45 | 1.610161e+04 | 1.620801e+04 |   0.66%| unknown
 34.5s|     1 |     0 | 54957 |     - |   131M |   0 | 632 | 700 | 691 |   2 |  1 | 136 |  45 | 1.610161e+04 | 1.620801e+04 |   0.66%| unknown
 34.9s|     1 |     0 | 55016 |     - |   131M |   0 | 632 | 700 | 692 |   3 |  2 | 136 |  45 | 1.610161e+04 | 1.620801e+04 |   0.66%| unknown
 35.3s|     1 |     0 | 55053 |     - |   132M |   0 | 632 | 700 | 693 |   4 |  3 | 136 |  45 | 1.610161e+04 | 1.620801e+04 |   0.66%| unknown
 35.8s|     1 |     0 | 55292 |     - |   133M |   0 | 632 | 700 | 694 |   5 |  4 | 136 |  45 | 1.610161e+04 | 1.620801e+04 |   0.66%| unknown
 35.8s|     1 |     0 | 55292 |     - |   133M |   0 | 632 | 700 | 691 |   5 |  4 | 136 |  45 | 1.610161e+04 | 1.620801e+04 |   0.66%| unknown
 36.2s|     1 |     0 | 55341 |     - |   135M |   0 | 632 | 697 | 694 |   8 |  5 | 136 |  45 | 1.610161e+04 | 1.620801e+04 |   0.66%| unknown
 36.2s|     1 |     0 | 55341 |     - |   135M |   0 | 632 | 697 | 693 |   8 |  5 | 136 |  45 | 1.610161e+04 | 1.620801e+04 |   0.66%| unknown
 36.6s|     1 |     0 | 55355 |     - |   136M |   0 | 632 | 696 | 694 |   9 |  6 | 136 |  45 | 1.610161e+04 | 1.620801e+04 |   0.66%| unknown
 37.0s|     1 |     0 | 55511 |     - |   139M |   0 | 632 | 696 | 697 |  12 |  7 | 136 |  45 | 1.610343e+04 | 1.620801e+04 |   0.65%| unknown
 37.1s|     1 |     0 | 55511 |     - |   139M |   0 | 632 | 696 | 686 |  12 |  7 | 136 |  45 | 1.610343e+04 | 1.620801e+04 |   0.65%| unknown
 37.5s|     1 |     0 | 55585 |     - |   142M |   0 | 632 | 685 | 687 |  13 |  8 | 136 |  45 | 1.610664e+04 | 1.620801e+04 |   0.63%| unknown
 37.5s|     1 |     0 | 55585 |     - |   142M |   0 | 632 | 685 | 678 |  13 |  8 | 136 |  45 | 1.610664e+04 | 1.620801e+04 |   0.63%| unknown
 time | node  | left  |LP iter|LP it/n|mem/heur|mdpt |vars |cons |rows |cuts |sepa|confs|strbr|  dualbound   | primalbound  |  gap   | compl. 
 37.9s|     1 |     0 | 55600 |     - |   143M |   0 | 632 | 676 | 680 |  15 |  9 | 136 |  45 | 1.610678e+04 | 1.620801e+04 |   0.63%| unknown
 37.9s|     1 |     0 | 55600 |     - |   143M |   0 | 632 | 676 | 679 |  15 |  9 | 136 |  45 | 1.610678e+04 | 1.620801e+04 |   0.63%| unknown
 38.3s|     1 |     0 | 55630 |     - |   145M |   0 | 632 | 675 | 681 |  17 | 10 | 136 |  45 | 1.610734e+04 | 1.620801e+04 |   0.62%| unknown
 38.3s|     1 |     0 | 55630 |     - |   145M |   0 | 632 | 675 | 680 |  17 | 10 | 136 |  45 | 1.610734e+04 | 1.620801e+04 |   0.62%| unknown
 38.6s|     1 |     0 | 55675 |     - |   145M |   0 | 632 | 674 | 597 |  19 | 11 | 136 |  45 | 1.610846e+04 | 1.620801e+04 |   0.62%| unknown
 38.7s|     1 |     0 | 55697 |     - |   146M |   0 | 632 | 674 | 598 |  20 | 12 | 136 |  45 | 1.610883e+04 | 1.620801e+04 |   0.62%| unknown
 38.7s|     1 |     0 | 55697 |     - |   146M |   0 | 632 | 674 | 596 |  20 | 12 | 136 |  45 | 1.610883e+04 | 1.620801e+04 |   0.62%| unknown
 38.8s|     1 |     0 | 55720 |     - |   146M |   0 | 632 | 672 | 597 |  21 | 14 | 136 |  45 | 1.610925e+04 | 1.620801e+04 |   0.61%| unknown
 38.8s|     1 |     0 | 55720 |     - |   146M |   0 | 632 | 672 | 596 |  21 | 14 | 136 |  45 | 1.610925e+04 | 1.620801e+04 |   0.61%| unknown
 38.9s|     1 |     0 | 55725 |     - |   146M |   0 | 632 | 671 | 598 |  23 | 15 | 136 |  45 | 1.610928e+04 | 1.620801e+04 |   0.61%| unknown
 39.0s|     1 |     0 | 55729 |     - |   146M |   0 | 632 | 671 | 599 |  24 | 16 | 136 |  45 | 1.610928e+04 | 1.620801e+04 |   0.61%| unknown
 39.7s|     1 |     0 | 56228 |     - |   146M |   0 | 632 | 576 | 599 |  24 | 18 | 136 |  66 | 1.620155e+04 | 1.620801e+04 |   0.04%| unknown
 39.7s|     1 |     0 | 56228 |     - |   146M |   0 | 632 | 576 | 345 |  24 | 18 | 136 |  66 | 1.620155e+04 | 1.620801e+04 |   0.04%| unknown
 39.8s|     1 |     0 | 56252 |     - |   146M |   0 | 632 | 398 | 317 |  28 | 19 | 136 |  66 | 1.620273e+04 | 1.620801e+04 |   0.03%| unknown
 39.8s|     1 |     0 | 56252 |     - |   146M |   0 | 632 | 398 | 315 |  28 | 19 | 136 |  66 | 1.620273e+04 | 1.620801e+04 |   0.03%| unknown
 time | node  | left  |LP iter|LP it/n|mem/heur|mdpt |vars |cons |rows |cuts |sepa|confs|strbr|  dualbound   | primalbound  |  gap   | compl. 
 39.8s|     1 |     0 | 56264 |     - |   146M |   0 | 632 | 398 | 318 |  31 | 20 | 136 |  66 | 1.620317e+04 | 1.620801e+04 |   0.03%| unknown
 39.8s|     1 |     0 | 56264 |     - |   146M |   0 | 632 | 398 | 315 |  31 | 20 | 136 |  66 | 1.620317e+04 | 1.620801e+04 |   0.03%| unknown
 39.8s|     1 |     0 | 56264 |     - |   146M |   0 | 632 | 335 | 315 |  31 | 20 | 136 |  66 | 1.620317e+04 | 1.620801e+04 |   0.03%| unknown
 39.8s|     1 |     0 | 56290 |     - |   146M |   0 | 632 | 335 | 320 |  36 | 21 | 136 |  66 | 1.620463e+04 | 1.620801e+04 |   0.02%| unknown
 39.8s|     1 |     0 | 56290 |     - |   146M |   0 | 632 | 335 | 318 |  36 | 21 | 136 |  66 | 1.620463e+04 | 1.620801e+04 |   0.02%| unknown
 39.8s|     1 |     0 | 56295 |     - |   146M |   0 | 632 | 335 | 319 |  37 | 22 | 136 |  66 | 1.620477e+04 | 1.620801e+04 |   0.02%| unknown
 39.8s|     1 |     0 | 56295 |     - |   146M |   0 | 632 | 335 | 317 |  37 | 22 | 136 |  66 | 1.620477e+04 | 1.620801e+04 |   0.02%| unknown
 39.8s|     1 |     0 | 56313 |     - |   146M |   0 | 632 | 308 | 317 |  37 | 22 | 140 |  69 | 1.620550e+04 | 1.620801e+04 |   0.02%| unknown
 39.8s|     1 |     0 | 56332 |     - |   146M |   0 | 632 | 308 | 319 |  39 | 23 | 140 |  69 | 1.620726e+04 | 1.620801e+04 |   0.00%| unknown
 39.9s|     1 |     0 | 56332 |     - |   146M |   0 | 632 | 308 | 303 |  39 | 23 | 140 |  69 | 1.620726e+04 | 1.620801e+04 |   0.00%| unknown
 39.9s|     1 |     0 | 56340 |     - |   146M |   0 | 632 | 308 | 293 |  40 | 24 | 140 |  69 | 1.620777e+04 | 1.620801e+04 |   0.00%| unknown
 39.9s|     1 |     0 | 56340 |     - |   146M |   0 | 632 | 308 | 292 |  40 | 24 | 140 |  69 | 1.620777e+04 | 1.620801e+04 |   0.00%| unknown
 39.9s|     1 |     0 | 56340 |     - |   146M |   0 | 632 | 301 | 292 |  40 | 24 | 140 |  69 | 1.620777e+04 | 1.620801e+04 |   0.00%| unknown
 39.9s|     1 |     0 | 56343 |     - |   146M |   0 | 632 | 301 | 293 |  41 | 25 | 140 |  69 | 1.620801e+04 | 1.620801e+04 |   0.00%| unknown
 39.9s|     1 |     0 | 56343 |     - |   146M |   0 | 632 | 301 | 293 |  41 | 25 | 140 |  69 | 1.620801e+04 | 1.620801e+04 |   0.00%| unknown

SCIP Status        : problem is solved [optimal solution found]
Solving Time (sec) : 39.87
Solving Nodes      : 1 (total of 10 nodes in 10 runs)
Primal Bound       : +1.62080108548476e+04 (10 solutions)
Dual Bound         : +1.62080108548476e+04
Gap                : 0.00 %
Solve Status: optimal
Solve Time: 39.88 seconds
